(set-logic QF_S)
(declare-fun x () String)
(declare-fun y () String)
(declare-fun z () Int)
(assert (not (= (str.replace y x (str.replace "" y y)) (str.replace x x (str.replace y x "")))))
(check-sat)
